\ LP format - for model browsing. Use MPS format to capture full model detail.
Minimize
  zeta_sub_0
Subject To
 R0: zeta_sub_0 - 1.87232523e+08 y_0_0 - 3.29856271e+08 y_0_1
   - 1.38054572e+08 y_0_2 - 2.99109595e+08 y_0_3 - 3.19508039e+08 y_0_4
   - 2.63458074e+08 y_0_5 + 1.5885449e+07 y_0_6 - 3.6182473e+08 y_0_7
   - 9.7710745e+07 y_0_8 - 2.80854505e+08 y_0_9 - 3.5847851e+07 y_0_10
   - 2.35696132e+08 y_0_11 - 1.2633397e+07 y_0_12 - 1.39521922e+08 y_0_13
   - 6.6540125e+07 y_0_14 - 2.5784857e+08 y_0_15 - 3.8350387e+07 y_0_16
   - 3.13010184e+08 y_0_17 - 2.7994227e+08 y_0_18 - 3.0270912e+08 y_0_19
   - 2.58378015e+08 y_0_20 - 3.11318143e+08 y_0_21 - 8.1732387e+07 y_0_22
   - 7.6651224e+07 y_0_23 - 3.07063106e+08 y_0_24 - 2.60714056e+08 y_0_25
   + 2.030325e+06 y_0_26 - 1.04667897e+08 y_0_27 - 1.7094597e+08 y_0_28
   - 1.04977099e+08 y_0_29 - 1.975324e+08 y_0_30 - 1.70228809e+08 y_0_31
   - 3.32164516e+08 y_0_32 - 9.9934363e+07 y_0_33 - 2.76737577e+08 y_0_34
   - 1.42454183e+08 y_0_35 - 2.5767645e+07 y_0_36 - 3.07251041e+08 y_0_37
   - 2.26983491e+08 y_0_38 - 9.346961e+06 y_0_39 - 4.9344642e+07 y_0_40
   - 7.6009853e+07 y_0_41 - 3.09461599e+08 y_0_42 - 3.43750875e+08 y_0_43
   - 3.16373977e+08 y_0_44 - 2.3197277e+07 y_0_45 - 2.90836884e+08 y_0_46
   - 3.34103493e+08 y_0_47 - 1.50346392e+08 y_0_48 + 1.6787461e+07 y_0_49
   - 1.1095096e+08 y_0_50 - 8.09694e+07 y_0_51 - 5.2865694e+07 y_0_52
   - 1.9261206e+07 y_0_53 - 1.68030926e+08 y_0_54 - 2.7676698e+08 y_0_55
   - 2.70792823e+08 y_0_56 - 1.25334477e+08 y_0_57 - 1.01532412e+08 y_0_58
   - 2.22700361e+08 y_0_59 + 2.1048187e+07 y_0_60 - 7.3643453e+07 y_0_61
   - 3.11947459e+08 y_0_62 - 2.19527231e+08 y_0_63 - 3.18046679e+08 y_0_64
   - 2.16342512e+08 y_0_65 - 3.00362368e+08 y_0_66 - 4.3148097e+07 y_0_67
   + 2.5465638e+07 y_0_68 - 6.0231232e+07 y_0_69 - 3.16474132e+08 y_0_70
   >= 0
 R1: y_0_29 + y_0_30 + y_0_31 + y_0_32 + y_0_33 + y_0_34 + y_0_35 + y_0_36
   + y_0_37 + y_0_38 = 1
 R2: y_0_53 + y_0_54 + y_0_55 + y_0_56 + y_0_57 + y_0_58 + y_0_59 + y_0_60
   = 0
 R3: - y_0_29 + y_0_39 + y_0_40 + y_0_41 + y_0_42 + y_0_43 + y_0_44
   + y_0_45 + y_0_46 + y_0_47 = 0
 R4: y_0_6 + y_0_7 + y_0_8 + y_0_9 + y_0_10 + y_0_11 + y_0_12 + y_0_13
   + y_0_14 - y_0_36 = 0
 R5: - y_0_6 + y_0_15 + y_0_16 + y_0_17 + y_0_18 + y_0_19 + y_0_20 - y_0_34
   - y_0_42 - y_0_59 = 0
 R6: - y_0_12 - y_0_30 - y_0_40 + y_0_48 + y_0_49 + y_0_50 + y_0_51
   + y_0_52 - y_0_56 = 0
 R7: y_0_0 + y_0_1 + y_0_2 + y_0_3 + y_0_4 - y_0_10 - y_0_38 - y_0_46
   - y_0_53 = 0
 R8: - y_0_33 - y_0_43 + y_0_63 + y_0_64 + y_0_65 = 0
 R9: - y_0_1 - y_0_17 - y_0_52 - y_0_57 + y_0_66 + y_0_67 + y_0_68 + y_0_69
   = 0
 R10: - y_0_4 - y_0_9 - y_0_15 + y_0_21 + y_0_22 + y_0_23 - y_0_37 - y_0_45
   - y_0_50 = 0
 R11: - y_0_3 - y_0_7 - y_0_21 + y_0_26 + y_0_27 - y_0_35 - y_0_48 - y_0_63
   - y_0_68 = 0
 R12: - y_0_13 - y_0_32 - y_0_39 - y_0_51 + y_0_61 + y_0_62 - y_0_65
   - y_0_66 = 0
 R13: - y_0_11 + y_0_24 + y_0_25 - y_0_54 = 0
 R14: - y_0_20 - y_0_22 - y_0_44 - y_0_60 - y_0_61 - y_0_64 - y_0_69
   + y_0_70 = 0
 R15: - y_0_2 - y_0_14 - y_0_18 - y_0_25 + y_0_28 - y_0_31 - y_0_41
   - y_0_58 - y_0_67 = 0
 R16: - y_0_0 + y_0_5 - y_0_16 - y_0_26 - y_0_47 - y_0_55 - y_0_62 = 0
 R17: - y_0_5 - y_0_8 - y_0_19 - y_0_23 - y_0_24 - y_0_27 - y_0_28 - y_0_49
   - y_0_70 = -1
Bounds
 y_0_0 <= 1
 y_0_1 <= 1
 y_0_2 <= 1
 y_0_3 <= 1
 y_0_4 <= 1
 y_0_5 <= 1
 y_0_6 <= 1
 y_0_7 <= 1
 y_0_8 <= 1
 y_0_9 <= 1
 y_0_10 <= 1
 y_0_11 <= 1
 y_0_12 <= 1
 y_0_13 <= 1
 y_0_14 <= 1
 y_0_15 <= 1
 y_0_16 <= 1
 y_0_17 <= 1
 y_0_18 <= 1
 y_0_19 <= 1
 y_0_20 <= 1
 y_0_21 <= 1
 y_0_22 <= 1
 y_0_23 <= 1
 y_0_24 <= 1
 y_0_25 <= 1
 y_0_26 <= 1
 y_0_27 <= 1
 y_0_28 <= 1
 y_0_29 <= 1
 y_0_30 <= 1
 y_0_31 <= 1
 y_0_32 <= 1
 y_0_33 <= 1
 y_0_34 <= 1
 y_0_35 <= 1
 y_0_36 <= 1
 y_0_37 <= 1
 y_0_38 <= 1
 y_0_39 <= 1
 y_0_40 <= 1
 y_0_41 <= 1
 y_0_42 <= 1
 y_0_43 <= 1
 y_0_44 <= 1
 y_0_45 <= 1
 y_0_46 <= 1
 y_0_47 <= 1
 y_0_48 <= 1
 y_0_49 <= 1
 y_0_50 <= 1
 y_0_51 <= 1
 y_0_52 <= 1
 y_0_53 <= 1
 y_0_54 <= 1
 y_0_55 <= 1
 y_0_56 <= 1
 y_0_57 <= 1
 y_0_58 <= 1
 y_0_59 <= 1
 y_0_60 <= 1
 y_0_61 <= 1
 y_0_62 <= 1
 y_0_63 <= 1
 y_0_64 <= 1
 y_0_65 <= 1
 y_0_66 <= 1
 y_0_67 <= 1
 y_0_68 <= 1
 y_0_69 <= 1
 y_0_70 <= 1
End
